\ Equation counts
\     Total        E        G        L        N        X        C        B
\         8        0        8        0        0        0        0        0
\ 
\ Variable counts
\                  x        b        i      s1s      s2s       sc       si
\     Total     cont   binary  integer     sos1     sos2    scont     sint
\         8        0        0        8        0        0        0        0
\ 
\ Nonzero counts
\     Total    const       NL      DLL
\        72        0       72        0
\ 
Minimize
 obj: 20.2 i1 - 8.6 i2 + 9.4 i3 - 30.8 i4 - 126.8 i5 - 81.4 i6 - 94 i7 - 9.4 i8 + [ 14 i1^2 - 12 i1 * i3 
  + 4 i1 * i4 - 8 i1 * i5 + 4 i1 * i6 - 4 i1 * i7 - 8 i1 * i8 + 12 i2^2 + 8 i2 * i3 - 4 i2 * i5 - 8 i2 * i6 
  - 12 i2 * i7 - 4 i2 * i8 + 16 i3^2 + 4 i3 * i4 - 12 i3 * i5 - 8 i3 * i6 - 4 i3 * i7 + 12 i3 * i8 + 12 i4^2 
  - 4 i4 * i6 + 8 i4 * i8 + 14 i5^2 + 12 i5 * i6 + 8 i5 * i7 - 8 i5 * i8 + 8 i6^2 + 8 i6 * i7 - 4 i6 * i8 
  + 12 i7^2 + 8 i7 * i8 + 14 i8^2 ]/2

Subject To
 e1: [ - 9 i1^2 - 10 i1 * i2 - 6 i1 * i3 - 10 i1 * i4 - 6 i1 * i6 + 6 i1 * i7 - 2 i1 * i8 - 8 i2^2 - 10 i2 * i3 
  - 6 i2 * i4 - 2 i2 * i5 - 2 i2 * i6 + 2 i2 * i7 - 8 i2 * i8 - 5 i3^2 - 2 i3 * i4 + 4 i3 * i7 - 2 i3 * i8 
  - 7 i4^2 - 2 i4 * i6 + 2 i4 * i7 - 7 i5^2 - 4 i5 * i7 + 6 i5 * i8 - 5 i6^2 + 4 i6 * i7 - 8 i7^2 - 2 i7 * i8 
  - 6 i8^2 ] >= -1.98e3
 e2: [ - 6 i1^2 - 8 i1 * i2 - 2 i1 * i3 + 2 i1 * i4 - 2 i1 * i5 - 6 i1 * i7 - 2 i1 * i8 - 6 i2^2 - 2 i2 * i3 
  + 10 i2 * i4 - 6 i2 * i5 - 2 i2 * i6 - 10 i2 * i7 - 4 i2 * i8 - 4 i3^2 + 8 i3 * i6 - 2 i3 * i7 - 2 i3 * i8 
  - 8 i4^2 + 6 i4 * i5 + 2 i4 * i6 + 10 i4 * i7 + 7 i5^2 - 4 i5 * i6 - 10 i5 * i7 - 8 i5 * i8 - 8 i6^2 
  - 8 i7^2 - 8 i7 * i8 - 5 i8^2 ] >= -3.18e3
 e3: [ - 9 i1^2 + 2 i1 * i2 + 4 i1 * i4 - 6 i1 * i5 + 2 i1 * i6 - 2 i1 * i8 - 6 i2^2 + 2 i2 * i3 + 4 i2 * i4 
  - 2 i2 * i5 + 4 i2 * i6 + 2 i2 * i7 - 8 i3^2 - 2 i3 * i4 - 4 i3 * i7 + 4 i3 * i8 - 6 i4^2 + 4 i4 * i5 
  - 6 i4 * i6 + 2 i4 * i8 + 6 i5^2 - 2 i5 * i6 - 6 i5 * i7 - 5 i6^2 - 4 i6 * i7 - 7 i7^2 - 4 i8^2 ] >= 
  -1.83e3
 e4: [ - 8 i1^2 - 2 i1 * i2 - 2 i1 * i3 + 6 i1 * i4 - 6 i1 * i5 - 10 i1 * i6 + 6 i1 * i7 + 4 i1 * i8 
  - 4 i2^2 - 4 i2 * i3 + 2 i2 * i4 - 4 i2 * i5 - 2 i2 * i7 - 4 i2 * i8 - 9 i3^2 - 2 i3 * i4 - 2 i3 * i5 
  - 10 i3 * i6 - 2 i3 * i7 + 2 i3 * i8 - 7 i4^2 + 6 i4 * i5 + 4 i4 * i6 - 4 i4 * i8 + 6 i5^2 - 2 i5 * i6 
  + 6 i5 * i7 - 4 i5 * i8 - 7 i6^2 + 2 i6 * i7 + 8 i6 * i8 - 6 i7^2 + 6 i7 * i8 - 8 i8^2 ] >= -1.61e3
  
 e5: [ - 4 i1^2 + 2 i1 * i2 - 6 i1 * i3 - 2 i1 * i4 - 4 i1 * i5 + 4 i1 * i6 + 4 i1 * i7 - 2 i1 * i8 - 5 i2^2 
  + 6 i2 * i4 + 2 i2 * i5 - 4 i2 * i6 - 4 i2 * i7 - 8 i3^2 - 2 i3 * i4 - 6 i3 * i5 + 6 i3 * i6 - 4 i3 * i7 
  - 6 i4^2 - 8 i4 * i5 + 4 i4 * i7 + 4 i4 * i8 - 7 i5^2 + 4 i5 * i6 + 4 i5 * i7 - 7 i6^2 + 4 i6 * i7 
  + 2 i6 * i8 - 8 i7^2 + 2 i7 * i8 - 4 i8^2 ] >= -1.18e3
 e6: [ - 7 i1^2 + 2 i1 * i2 - 6 i1 * i3 - 2 i1 * i4 - 2 i1 * i5 + 2 i1 * i6 + 4 i1 * i8 - 7 i2^2 - 2 i2 * i3 
  + 2 i2 * i4 - 4 i2 * i6 + 4 i2 * i7 + 8 i2 * i8 - 6 i3^2 - 2 i3 * i4 - 4 i3 * i5 + 4 i3 * i6 - 4 i3 * i7 
  + 2 i3 * i8 - 5 i4^2 + 2 i4 * i5 + 2 i4 * i6 + 4 i4 * i7 - 4 i4 * i8 - 5 i5^2 + 6 i5 * i6 - 4 i5 * i7 
  - 2 i5 * i8 - 9 i6^2 + 8 i6 * i7 + 4 i6 * i8 - 6 i7^2 - 9 i8^2 ] >= -9.3e2
 e7: [ - 9 i1^2 - 4 i1 * i2 + 4 i1 * i3 + 4 i1 * i4 - 2 i1 * i5 - 8 i1 * i6 - 4 i1 * i7 - 2 i1 * i8 - 8 i2^2 
  + 2 i2 * i3 - 12 i2 * i5 + 2 i2 * i6 - 6 i2 * i7 + 2 i2 * i8 - 7 i3^2 + 4 i3 * i4 - 4 i3 * i5 - 2 i3 * i7 
  + 2 i3 * i8 - 7 i4^2 + 10 i4 * i7 + 2 i4 * i8 - 8 i5^2 - 2 i5 * i6 - 2 i5 * i7 - 6 i6^2 + 2 i6 * i7 
  - 6 i6 * i8 - 7 i7^2 - 2 i7 * i8 - 6 i8^2 ] >= -2.79e3
 e8: [ - 7 i1^2 + 4 i1 * i2 + 4 i1 * i3 + 4 i1 * i4 - 2 i1 * i6 - 2 i1 * i7 + 2 i1 * i8 - 8 i2^2 + 8 i2 * i4 
  - 2 i2 * i5 - 2 i2 * i6 + 8 i2 * i7 - 6 i2 * i8 - 8 i3^2 - 6 i3 * i4 - 2 i3 * i7 + 6 i3 * i8 - 7 i4^2 
  + 2 i4 * i5 + 4 i4 * i6 - 2 i4 * i7 + 4 i4 * i8 - 5 i5^2 - 4 i5 * i6 + 6 i5 * i7 + 2 i5 * i8 - 7 i6^2 
  + 2 i6 * i7 - 4 i6 * i8 - 7 i7^2 - 6 i8^2 ] >= -9.1e2

Bounds
 i1 <= 200
 i2 <= 200
 i3 <= 200
 i4 <= 200
 i5 <= 200
 i6 <= 200
 i7 <= 200
 i8 <= 200

General
 i1 i2 i3 i4 i5 i6 i7 i8

End
